(define-fun
  h2
  () Int (+ 1 (+ 2 2)))
(define-fun
  h1
  ((x Int)) Int (+ (* x x) x))
(define-fun
  h0
  ((x Int)) Int x)
(define-fun
  g0
  ((x Int) (y Int)) Int (div (+ x y) x))
(define-funs-rec
  ((v0
    ((x Int) (y Int) (z Int)) Int)
   (u0
    ((x Int) (y Int) (z Int)) Int))
  ((ite (<= x 0) z (g0 (u0 (- x 1) y z) (v0 (- x 1) y z)))
   (ite (<= x 0) y (v0 (- x 1) y z))))
(define-fun
  w0
  ((x Int)) Int (u0 x 1 2))
(define-fun
  small
  ((x Int)) Int (- (- (* (w0 x) (+ 1 (+ 2 2))) 2) 2))
(define-fun
  f2
  ((x Int)) Int (* x x))
(define-fun-rec
  u2
  ((x Int) (y Int)) Int (ite (<= x 0) y (f2 (u2 (- x 1) y))))
(define-fun
  v2
  () Int (u2 1 h2))
(define-fun
  f1
  ((x Int)) Int (+ (* x x) x))
(define-fun-rec
  u1
  ((x Int) (y Int)) Int (ite (<= x 0) y (f1 (u1 (- x 1) y))))
(define-fun
  v1
  ((x Int)) Int (u1 1 (h1 x)))
(define-fun
  fast
  ((x Int)) Int (mod (+ 1 (* (+ 1 (+ 2 2)) (v1 x))) v2))
(define-fun
  f0
  ((x Int) (y Int)) Int y)
(assert-not
  (forall ((c Int)) (or (not (>= c 0)) (= (small c) (fast c)))))
